c description: Random 3-CNF over 20 variables and 85 clauses
c generator: CNFgen (0.9.2)
c copyright: (C) 2012-2022 Massimo Lauria <massimo.lauria@uniroma1.it>
c url: https://massimolauria.net/cnfgen
c command line: cnfgen --output CNF_4.28/20_bit_85_967.cnf randkcnf 3 20 85
c
p cnf 20 85
1 -4 -12 0
-2 -5 16 0
-2 -11 -14 0
-2 6 12 0
-10 12 -17 0
-1 14 -16 0
-4 9 14 0
3 13 17 0
-9 -12 -18 0
7 -17 -20 0
4 9 14 0
14 -16 20 0
7 8 12 0
-4 8 -17 0
-1 -13 19 0
2 11 20 0
12 15 -19 0
2 -8 10 0
-3 4 13 0
-1 10 -11 0
-1 -3 -12 0
-14 -19 -20 0
4 7 -16 0
-1 -10 -19 0
-6 -10 -14 0
2 -8 -20 0
1 9 20 0
1 -7 -19 0
-2 -7 -9 0
2 15 16 0
7 -14 -19 0
2 3 18 0
2 6 13 0
-11 -19 20 0
-2 17 -19 0
4 5 -6 0
-6 8 -9 0
-7 -8 18 0
-8 -9 19 0
10 -14 19 0
7 14 19 0
2 -5 -17 0
-2 -12 -15 0
-3 -14 -19 0
5 -9 -10 0
8 14 16 0
2 3 -13 0
-1 12 17 0
-8 18 19 0
1 13 14 0
-10 -16 19 0
4 -14 20 0
-3 9 15 0
4 7 -12 0
-3 8 -17 0
-7 15 19 0
-17 19 -20 0
-13 15 -19 0
-5 13 17 0
-3 10 15 0
-3 4 19 0
-5 14 -19 0
-1 8 16 0
3 12 19 0
8 9 13 0
-2 -3 17 0
-3 6 -11 0
4 6 -18 0
8 -16 17 0
1 -9 -20 0
-2 5 16 0
3 9 -10 0
-6 8 20 0
2 4 -16 0
3 6 -10 0
-11 17 -18 0
5 12 15 0
2 -4 9 0
-8 11 12 0
-5 -6 13 0
-6 -8 10 0
-4 -17 -19 0
-16 -18 19 0
2 -3 -10 0
-5 8 11 0
